Route 1: 27 28 12 26 40 21 22 41 2 13 6
Route 2: 31 10 32 30 20 9 33 3 50 1
Route 3: 7 48 47 36 46 8 45 17 5 18
Route 4: 42 43 14 44 38 16 37
Route 5: 15 23 39 4 25 24
Route 6: 19 49 11 35 34 29
Vehicles: 6
Distance: 712.55
